p cnf 228 504
1 -2 0
2 -1 0
3 4 0
5 4 0
-3 -5 -4 0
-6 4 -7 0
6 -4 -7 0
7 -4 -6 0
6 4 7 0
-7 0
8 9 0
10 9 0
-8 -10 -9 0
-5 9 -11 0
5 -9 -11 0
11 -9 -5 0
5 9 11 0
-11 0
8 12 0
13 12 0
-8 -13 -12 0
-10 12 -14 0
10 -12 -14 0
14 -12 -10 0
10 12 14 0
-14 0
15 16 0
17 16 0
-15 -17 -16 0
-18 16 -19 0
18 -16 -19 0
19 -16 -18 0
18 16 19 0
-19 0
6 20 0
21 20 0
-6 -21 -20 0
-17 20 -22 0
17 -20 -22 0
22 -20 -17 0
17 20 22 0
-22 0
23 24 0
25 24 0
-23 -25 -24 0
-26 24 -27 0
26 -24 -27 0
27 -24 -26 0
26 24 27 0
-27 0
28 29 0
30 29 0
-28 -30 -29 0
-25 29 -31 0
25 -29 -31 0
31 -29 -25 0
25 29 31 0
-31 0
32 33 0
34 33 0
-32 -34 -33 0
-30 33 -35 0
30 -33 -35 0
35 -33 -30 0
30 33 35 0
-35 0
36 37 0
38 37 0
-36 -38 -37 0
-34 37 -39 0
34 -37 -39 0
39 -37 -34 0
34 37 39 0
-39 0
40 41 0
42 41 0
-40 -42 -41 0
-38 41 -43 0
38 -41 -43 0
43 -41 -38 0
38 41 43 0
-43 0
32 44 0
36 44 0
40 44 0
45 44 0
-46 0
-42 44 -47 0
42 -44 -47 0
47 -44 -42 0
42 44 47 0
-47 0
48 49 0
50 49 0
-48 -50 -49 0
-51 49 -52 0
51 -49 -52 0
52 -49 -51 0
51 49 52 0
-52 0
53 54 0
55 54 0
-53 -55 -54 0
-50 54 -56 0
50 -54 -56 0
56 -54 -50 0
50 54 56 0
-56 0
57 58 0
59 58 0
-57 -59 -58 0
-55 58 -60 0
55 -58 -60 0
60 -58 -55 0
55 58 60 0
-60 0
61 62 0
63 62 0
-61 -63 -62 0
-59 62 -64 0
59 -62 -64 0
64 -62 -59 0
59 62 64 0
-64 0
65 66 0
67 66 0
-65 -67 -66 0
-63 66 -68 0
63 -66 -68 0
68 -66 -63 0
63 66 68 0
-68 0
57 69 0
61 69 0
65 69 0
70 69 0
-71 0
-67 69 -72 0
67 -69 -72 0
72 -69 -67 0
67 69 72 0
-72 0
73 74 0
75 74 0
-73 -75 -74 0
-76 74 -77 0
76 -74 -77 0
77 -74 -76 0
76 74 77 0
-77 0
78 79 0
80 79 0
-78 -80 -79 0
-75 79 -81 0
75 -79 -81 0
81 -79 -75 0
75 79 81 0
-81 0
1 82 0
83 82 0
-1 -83 -82 0
-80 82 -84 0
80 -82 -84 0
84 -82 -80 0
80 82 84 0
-84 0
85 86 0
87 86 0
-85 -87 -86 0
-88 86 -89 0
88 -86 -89 0
89 -86 -88 0
88 86 89 0
-89 0
90 91 0
92 91 0
-90 -92 -91 0
-87 91 -93 0
87 -91 -93 0
93 -91 -87 0
87 91 93 0
-93 0
94 95 0
96 95 0
-94 -96 -95 0
-92 95 -97 0
92 -95 -97 0
97 -95 -92 0
92 95 97 0
-97 0
98 99 0
100 99 0
-98 -100 -99 0
-96 99 -101 0
96 -99 -101 0
101 -99 -96 0
96 99 101 0
-101 0
102 103 0
104 103 0
-102 -104 -103 0
-100 103 -105 0
100 -103 -105 0
105 -103 -100 0
100 103 105 0
-105 0
98 106 0
102 106 0
107 106 0
-98 -102 -107 -106 0
-104 106 -108 0
104 -106 -108 0
108 -106 -104 0
104 106 108 0
-108 0
109 110 0
111 110 0
-109 -111 -110 0
-112 110 -113 0
112 -110 -113 0
113 -110 -112 0
112 110 113 0
-113 0
75 114 0
115 114 0
-75 -115 -114 0
-111 114 -116 0
111 -114 -116 0
116 -114 -111 0
111 114 116 0
-116 0
117 118 0
119 118 0
-117 -119 -118 0
-120 118 -121 0
120 -118 -121 0
121 -118 -120 0
120 118 121 0
-121 0
92 122 0
123 122 0
-92 -123 -122 0
-119 122 -124 0
119 -122 -124 0
124 -122 -119 0
119 122 124 0
-124 0
125 126 0
127 126 0
-125 -127 -126 0
-128 126 -129 0
128 -126 -129 0
129 -126 -128 0
128 126 129 0
-129 0
130 131 0
132 131 0
-130 -132 -131 0
-127 131 -133 0
127 -131 -133 0
133 -131 -127 0
127 131 133 0
-133 0
134 135 0
136 135 0
-134 -136 -135 0
-132 135 -137 0
132 -135 -137 0
137 -135 -132 0
132 135 137 0
-137 0
59 138 0
139 138 0
-59 -139 -138 0
-136 138 -140 0
136 -138 -140 0
140 -138 -136 0
136 138 140 0
-140 0
141 142 0
143 142 0
-141 -143 -142 0
-144 142 -145 0
144 -142 -145 0
145 -142 -144 0
144 142 145 0
-145 0
146 147 0
148 147 0
-146 -148 -147 0
-143 147 -149 0
143 -147 -149 0
149 -147 -143 0
143 147 149 0
-149 0
10 150 0
151 150 0
-10 -151 -150 0
-148 150 -152 0
148 -150 -152 0
152 -150 -148 0
148 150 152 0
-152 0
153 -2 -154 0
2 -153 -154 0
-153 -2 154 0
2 153 154 0
-154 0
155 -3 -156 0
3 -155 -156 0
-155 -3 156 0
3 155 156 0
-156 0
157 -8 -158 0
8 -157 -158 0
-157 -8 158 0
8 157 158 0
-158 0
159 -13 -160 0
13 -159 -160 0
-159 -13 160 0
13 159 160 0
-160 0
161 -15 -162 0
15 -161 -162 0
-161 -15 162 0
15 161 162 0
-162 0
163 -21 -164 0
21 -163 -164 0
-163 -21 164 0
21 163 164 0
-164 0
165 -23 -166 0
23 -165 -166 0
-165 -23 166 0
23 165 166 0
-166 0
167 -28 -168 0
28 -167 -168 0
-167 -28 168 0
28 167 168 0
-168 0
169 -32 -170 0
32 -169 -170 0
-169 -32 170 0
32 169 170 0
-170 0
171 -36 -172 0
36 -171 -172 0
-171 -36 172 0
36 171 172 0
-172 0
173 -40 -174 0
40 -173 -174 0
-173 -40 174 0
40 173 174 0
-174 0
175 -45 -176 0
45 -175 -176 0
-175 -45 176 0
45 175 176 0
-176 0
177 -48 -178 0
48 -177 -178 0
-177 -48 178 0
48 177 178 0
-178 0
179 -53 -180 0
53 -179 -180 0
-179 -53 180 0
53 179 180 0
-180 0
181 -57 -182 0
57 -181 -182 0
-181 -57 182 0
57 181 182 0
-182 0
183 -61 -184 0
61 -183 -184 0
-183 -61 184 0
61 183 184 0
-184 0
185 -65 -186 0
65 -185 -186 0
-185 -65 186 0
65 185 186 0
-186 0
187 -70 -188 0
70 -187 -188 0
-187 -70 188 0
70 187 188 0
-188 0
189 -73 -190 0
73 -189 -190 0
-189 -73 190 0
73 189 190 0
-190 0
191 -78 -192 0
78 -191 -192 0
-191 -78 192 0
78 191 192 0
-192 0
193 -83 -194 0
83 -193 -194 0
-193 -83 194 0
83 193 194 0
-194 0
195 -85 -196 0
85 -195 -196 0
-195 -85 196 0
85 195 196 0
-196 0
197 -90 -198 0
90 -197 -198 0
-197 -90 198 0
90 197 198 0
-198 0
199 -94 -200 0
94 -199 -200 0
-199 -94 200 0
94 199 200 0
-200 0
201 -98 -202 0
98 -201 -202 0
-201 -98 202 0
98 201 202 0
-202 0
203 -102 -204 0
102 -203 -204 0
-203 -102 204 0
102 203 204 0
-204 0
205 -107 -206 0
107 -205 -206 0
-205 -107 206 0
107 205 206 0
-206 0
207 -109 -208 0
109 -207 -208 0
-207 -109 208 0
109 207 208 0
-208 0
209 -115 -210 0
115 -209 -210 0
-209 -115 210 0
115 209 210 0
-210 0
211 -117 -212 0
117 -211 -212 0
-211 -117 212 0
117 211 212 0
-212 0
213 -123 -214 0
123 -213 -214 0
-213 -123 214 0
123 213 214 0
-214 0
215 -125 -216 0
125 -215 -216 0
-215 -125 216 0
125 215 216 0
-216 0
217 -130 -218 0
130 -217 -218 0
-217 -130 218 0
130 217 218 0
-218 0
219 -134 -220 0
134 -219 -220 0
-219 -134 220 0
134 219 220 0
-220 0
221 -139 -222 0
139 -221 -222 0
-221 -139 222 0
139 221 222 0
-222 0
223 -141 -224 0
141 -223 -224 0
-223 -141 224 0
141 223 224 0
-224 0
225 -146 -226 0
146 -225 -226 0
-225 -146 226 0
146 225 226 0
-226 0
227 -151 -228 0
151 -227 -228 0
-227 -151 228 0
151 227 228 0
-228 0
1 0
-6 0
-18 0
-26 0
-51 0
-76 0
-88 0
-112 0
-120 0
-128 0
-144 0
